VALUE 2100540
1 6
6 211
7 209
11 204
15 196
17 195
19 21
21 193
24 224
27 172
32 146
34 143
34 36
39 153
43 134
48 131
52 123
53 60
58 86
60 112
64 101
66 110
71 77
72 94
77 78
78 79
79 81
81 84
84 86
86 97
64 88
88 89
89 91
91 94
97 105
66 101
105 108
108 115
58 110
58 112
52 115
123 129
48 129
131 132
43 132
134 139
39 139
32 143
146 150
24 150
153 155
155 160
160 163
163 165
165 169
146 169
169 171
171 172
169 173
173 175
175 185
185 188
27 193
19 195
188 196
15 202
202 204
11 207
207 209
7 211
1 217
7 218
11 219
15 220
17 221
19 222
21 223
27 225
32 226
34 227
36 228
39 229
43 230
48 231
52 232
53 233
60 234
66 235
71 236
72 237

